10 10 3

0 139 143 51 210 373 447 487 151 150 
184 0 280 121 221 416 228 250 500 291 
200 194 0 258 174 497 301 112 226 309 
89 74 86 0 213 164 180 421 80 259 
123 273 360 430 0 407 346 51 128 261 
229 84 468 226 235 0 368 190 115 120 
441 177 296 456 216 76 0 493 135 397 
379 262 428 137 336 407 204 0 265 314 
256 473 148 224 201 389 191 133 0 123 
265 273 189 335 421 72 130 132 446 0 

286.77 0 2
286.77 1 2
286.77 2 1
286.77 3 2
286.77 4 0
286.77 5 1
286.77 6 8
286.77 7 3
286.77 8 4
286.77 9 4

